c CNF file corresponding to a (partial) station packing problem.
p cnf 6869 229
1 2 3 4 5 6 7 8 9 10 11 12 13 14 0
-1 -2 0
-1 -3 0
-1 -4 0
-1 -5 0
-1 -6 0
-1 -7 0
-1 -8 0
-1 -9 0
-1 -10 0
-1 -11 0
-1 -12 0
-1 -13 0
-1 -14 0
-2 -3 0
-2 -4 0
-2 -5 0
-2 -6 0
-2 -7 0
-2 -8 0
-2 -9 0
-2 -10 0
-2 -11 0
-2 -12 0
-2 -13 0
-2 -14 0
-3 -4 0
-3 -5 0
-3 -6 0
-3 -7 0
-3 -8 0
-3 -9 0
-3 -10 0
-3 -11 0
-3 -12 0
-3 -13 0
-3 -14 0
-4 -5 0
-4 -6 0
-4 -7 0
-4 -8 0
-4 -9 0
-4 -10 0
-4 -11 0
-4 -12 0
-4 -13 0
-4 -14 0
-5 -6 0
-5 -7 0
-5 -8 0
-5 -9 0
-5 -10 0
-5 -11 0
-5 -12 0
-5 -13 0
-5 -14 0
-6 -7 0
-6 -8 0
-6 -9 0
-6 -10 0
-6 -11 0
-6 -12 0
-6 -13 0
-6 -14 0
-7 -8 0
-7 -9 0
-7 -10 0
-7 -11 0
-7 -12 0
-7 -13 0
-7 -14 0
-8 -9 0
-8 -10 0
-8 -11 0
-8 -12 0
-8 -13 0
-8 -14 0
-9 -10 0
-9 -11 0
-9 -12 0
-9 -13 0
-9 -14 0
-10 -11 0
-10 -12 0
-10 -13 0
-10 -14 0
-11 -12 0
-11 -13 0
-11 -14 0
-12 -13 0
-12 -14 0
-13 -14 0
6853 6854 6855 6856 6857 6858 6859 6860 6861 6862 6863 6864 6865 6866 6867 6868 6869 0
-6853 -6854 0
-6853 -6855 0
-6853 -6856 0
-6853 -6857 0
-6853 -6858 0
-6853 -6859 0
-6853 -6860 0
-6853 -6861 0
-6853 -6862 0
-6853 -6863 0
-6853 -6864 0
-6853 -6865 0
-6853 -6866 0
-6853 -6867 0
-6853 -6868 0
-6853 -6869 0
-6854 -6855 0
-6854 -6856 0
-6854 -6857 0
-6854 -6858 0
-6854 -6859 0
-6854 -6860 0
-6854 -6861 0
-6854 -6862 0
-6854 -6863 0
-6854 -6864 0
-6854 -6865 0
-6854 -6866 0
-6854 -6867 0
-6854 -6868 0
-6854 -6869 0
-6855 -6856 0
-6855 -6857 0
-6855 -6858 0
-6855 -6859 0
-6855 -6860 0
-6855 -6861 0
-6855 -6862 0
-6855 -6863 0
-6855 -6864 0
-6855 -6865 0
-6855 -6866 0
-6855 -6867 0
-6855 -6868 0
-6855 -6869 0
-6856 -6857 0
-6856 -6858 0
-6856 -6859 0
-6856 -6860 0
-6856 -6861 0
-6856 -6862 0
-6856 -6863 0
-6856 -6864 0
-6856 -6865 0
-6856 -6866 0
-6856 -6867 0
-6856 -6868 0
-6856 -6869 0
-6857 -6858 0
-6857 -6859 0
-6857 -6860 0
-6857 -6861 0
-6857 -6862 0
-6857 -6863 0
-6857 -6864 0
-6857 -6865 0
-6857 -6866 0
-6857 -6867 0
-6857 -6868 0
-6857 -6869 0
-6858 -6859 0
-6858 -6860 0
-6858 -6861 0
-6858 -6862 0
-6858 -6863 0
-6858 -6864 0
-6858 -6865 0
-6858 -6866 0
-6858 -6867 0
-6858 -6868 0
-6858 -6869 0
-6859 -6860 0
-6859 -6861 0
-6859 -6862 0
-6859 -6863 0
-6859 -6864 0
-6859 -6865 0
-6859 -6866 0
-6859 -6867 0
-6859 -6868 0
-6859 -6869 0
-6860 -6861 0
-6860 -6862 0
-6860 -6863 0
-6860 -6864 0
-6860 -6865 0
-6860 -6866 0
-6860 -6867 0
-6860 -6868 0
-6860 -6869 0
-6861 -6862 0
-6861 -6863 0
-6861 -6864 0
-6861 -6865 0
-6861 -6866 0
-6861 -6867 0
-6861 -6868 0
-6861 -6869 0
-6862 -6863 0
-6862 -6864 0
-6862 -6865 0
-6862 -6866 0
-6862 -6867 0
-6862 -6868 0
-6862 -6869 0
-6863 -6864 0
-6863 -6865 0
-6863 -6866 0
-6863 -6867 0
-6863 -6868 0
-6863 -6869 0
-6864 -6865 0
-6864 -6866 0
-6864 -6867 0
-6864 -6868 0
-6864 -6869 0
-6865 -6866 0
-6865 -6867 0
-6865 -6868 0
-6865 -6869 0
-6866 -6867 0
-6866 -6868 0
-6866 -6869 0
-6867 -6868 0
-6867 -6869 0
-6868 -6869 0
